!!! Generated by AiiDA !!!
&FORCE_EVAL
   &DFT
      BASIS_SET_FILE_NAME BASIS_MOLOPT
      CHARGE 0
      &MGRID
         CUTOFF 600
         NGRIDS 5
      &END MGRID
      MULTIPLICITY 2
      &POISSON
         PERIODIC XYZ
         POISSON_SOLVER PERIODIC
      &END POISSON
      POTENTIAL_FILE_NAME POTENTIAL
      &PRINT
         &E_DENSITY_CUBE
            ADD_LAST NUMERIC
            &EACH
               GEO_OPT 0
               QS_SCF 0
            &END EACH
            STRIDE 2 2 2
         &END E_DENSITY_CUBE
         &MO_CUBES
            ADD_LAST NUMERIC
            &EACH
               GEO_OPT 0
               QS_SCF 0
            &END EACH
            NHOMO 1
            NLUMO 1
            STRIDE 4 4 4
         &END MO_CUBES
         &V_HARTREE_CUBE
            ADD_LAST NUMERIC
            &EACH
               GEO_OPT 0
               QS_SCF 0
            &END EACH
            FILENAME HART
            STRIDE 2 2 2
         &END V_HARTREE_CUBE
      &END PRINT
      &QS
         EPS_DEFAULT 1e-14
         EXTRAPOLATION ASPC
         EXTRAPOLATION_ORDER 3
         METHOD GPW
      &END QS
      RESTART_FILE_NAME ./parent_calc/aiida-RESTART.wfn
      &SCF
         EPS_SCF 1e-07
         MAX_SCF 40
         &OT
            MINIMIZER CG
            PRECONDITIONER FULL_SINGLE_INVERSE
         &END OT
         &OUTER_SCF
            EPS_SCF 1e-07
            MAX_SCF 50
         &END OUTER_SCF
         &PRINT
            &RESTART
               ADD_LAST NUMERIC
               &EACH
                  GEO_OPT 1
                  QS_SCF 0
               &END EACH
               FILENAME RESTART
            &END RESTART
            &RESTART_HISTORY OFF
               BACKUP_COPIES 0
            &END RESTART_HISTORY
         &END PRINT
         SCF_GUESS RESTART
      &END SCF
      UKS .TRUE.
      &XC
         &VDW_POTENTIAL
            DISPERSION_FUNCTIONAL PAIR_POTENTIAL
            &PAIR_POTENTIAL
               CALCULATE_C9_TERM .TRUE.
               PARAMETER_FILE_NAME dftd3.dat
               REFERENCE_FUNCTIONAL PBE
               R_CUTOFF 15
               TYPE DFTD3
            &END PAIR_POTENTIAL
         &END VDW_POTENTIAL
         &XC_FUNCTIONAL PBE
         &END XC_FUNCTIONAL
      &END XC
   &END DFT
   METHOD Quickstep
   &SUBSYS
      &CELL
         A 47.16798208     0.0             0.0            
         B 0.0             91.90950912     0.0            
         C 0.0             0.0             48.11823948    
         PERIODIC XYZ
         SYMMETRY NONE
      &END CELL
      &KIND C
         BASIS_SET TZV2P-MOLOPT-GTH
         ELEMENT C
         POTENTIAL GTH-PBE-q4
      &END KIND
      &KIND C1
         BASIS_SET TZV2P-MOLOPT-GTH
         ELEMENT C
         MAGNETIZATION -1.0
         POTENTIAL GTH-PBE-q4
      &END KIND
      &KIND C2
         BASIS_SET TZV2P-MOLOPT-GTH
         ELEMENT C
         MAGNETIZATION 1.0
         POTENTIAL GTH-PBE-q4
      &END KIND
      &KIND H
         BASIS_SET TZV2P-MOLOPT-GTH
         ELEMENT H
         POTENTIAL GTH-PBE-q1
      &END KIND
      &KIND Au
         BASIS_SET DZVP-MOLOPT-SR-GTH-q11
         ELEMENT Au
         POTENTIAL GTH-PBE-q11
      &END KIND
      &TOPOLOGY
         COORD_FILE_FORMAT XYZ
         COORD_FILE_NAME aiida.coords.xyz
      &END TOPOLOGY
   &END SUBSYS
&END FORCE_EVAL
&GLOBAL
   ELPA_KERNEL AVX2_BLOCK2
   EXTENDED_FFT_LENGTHS 
   PRINT_LEVEL MEDIUM
   PROJECT aiida
   RUN_TYPE GEO_OPT
   WALLTIME 85800
&END GLOBAL
&MOTION
   &CONSTRAINT
      &FIXED_ATOMS
         COMPONENTS_TO_FIX XYZ
         LIST 1351..3078
      &END FIXED_ATOMS
   &END CONSTRAINT
   &GEO_OPT
      &BFGS
         TRUST_RADIUS [bohr] 0.1
      &END BFGS
      MAX_DR 0.003
      MAX_FORCE 0.0001
      MAX_ITER 1000
      OPTIMIZER BFGS
      RMS_DR 0.001
      RMS_FORCE 0.0001
   &END GEO_OPT
   &PRINT
      &RESTART_HISTORY OFF
      &END RESTART_HISTORY
   &END PRINT
&END MOTION