!!! Generated by AiiDA !!!
&FORCE_EVAL
   &DFT
      BASIS_SET_FILE_NAME BASIS_MOLOPT
      CHARGE 0
      &MGRID
         CUTOFF 600
         NGRIDS 5
      &END MGRID
      MULTIPLICITY 3
      &POISSON
         PERIODIC XYZ
         POISSON_SOLVER PERIODIC
      &END POISSON
      POTENTIAL_FILE_NAME POTENTIAL
      &QS
         EPS_DEFAULT 1e-14
         EXTRAPOLATION ASPC
         EXTRAPOLATION_ORDER 3
         METHOD GPW
      &END QS
      RESTART_FILE_NAME aiida-RESTART.wfn
      &SCF
         EPS_SCF 0.00161
         MAX_SCF 40
         &OT
            MINIMIZER CG
            PRECONDITIONER FULL_SINGLE_INVERSE
         &END OT
         &OUTER_SCF
            EPS_SCF 0.00161
            MAX_SCF 50
         &END OUTER_SCF
         &PRINT
            &RESTART
               ADD_LAST NUMERIC
               &EACH
                  GEO_OPT 1
                  QS_SCF 0
               &END EACH
               FILENAME RESTART
            &END RESTART
            &RESTART_HISTORY OFF
               BACKUP_COPIES 0
            &END RESTART_HISTORY
         &END PRINT
         SCF_GUESS RESTART
      &END SCF
      UKS .TRUE.
      &XC
         &VDW_POTENTIAL
            DISPERSION_FUNCTIONAL PAIR_POTENTIAL
            &PAIR_POTENTIAL
               CALCULATE_C9_TERM .TRUE.
               PARAMETER_FILE_NAME dftd3.dat
               REFERENCE_FUNCTIONAL PBE
               R_CUTOFF 15
               TYPE DFTD3
            &END PAIR_POTENTIAL
         &END VDW_POTENTIAL
         &XC_FUNCTIONAL PBE
         &END XC_FUNCTIONAL
      &END XC
   &END DFT
   METHOD Quickstep
   &SUBSYS
      &CELL
         A 29.4799888      0.0             0.0            
         B 0.0             40.84867072     0.0            
         C 0.0             0.0             48.11823948    
         PERIODIC XYZ
         SYMMETRY NONE
      &END CELL
      &KIND C
         BASIS_SET TZV2P-MOLOPT-GTH
         ELEMENT C
         POTENTIAL GTH-PBE-q4
      &END KIND
      &KIND C1
         BASIS_SET TZV2P-MOLOPT-GTH
         ELEMENT C
         MAGNETIZATION 1.0
         POTENTIAL GTH-PBE-q4
      &END KIND
      &KIND H
         BASIS_SET TZV2P-MOLOPT-GTH
         ELEMENT H
         POTENTIAL GTH-PBE-q1
      &END KIND
      &KIND Au
         BASIS_SET DZVP-MOLOPT-SR-GTH-q11
         ELEMENT Au
         POTENTIAL GTH-PBE-q11
      &END KIND
      &TOPOLOGY
         COORD_FILE_FORMAT XYZ
         COORD_FILE_NAME aiida.coords.xyz
      &END TOPOLOGY
   &END SUBSYS
&END FORCE_EVAL
&GLOBAL
   EXTENDED_FFT_LENGTHS 
   PRINT_LEVEL MEDIUM
   PROJECT aiida
   RUN_TYPE ENERGY
   WALLTIME 85800
&END GLOBAL
